GLPSOL--GLPK LP/MIP Solver 5.0
Parameter(s) specified in the command line:
 --lp ../modeles/20_364.lp --log 20_364.log
Reading problem data from '../modeles/20_364.lp'...
7361 rows, 14600 columns, 51020 non-zeros
7280 integer variables, all of which are binary
21987 lines were read
GLPK Integer Optimizer 5.0
7361 rows, 14600 columns, 51020 non-zeros
7280 integer variables, all of which are binary
Preprocessing...
7240 constraint coefficient(s) were reduced
7361 rows, 14580 columns, 51000 non-zeros
7280 integer variables, all of which are binary
Scaling...
 A: min|aij| =  1.208e-04  max|aij| =  4.000e+00  ratio =  3.312e+04
GM: min|aij| =  7.412e-02  max|aij| =  1.349e+01  ratio =  1.820e+02
EQ: min|aij| =  5.495e-03  max|aij| =  1.000e+00  ratio =  1.820e+02
2N: min|aij| =  3.864e-03  max|aij| =  1.765e+00  ratio =  4.567e+02
Constructing initial basis...
Size of triangular part is 7361
Solving LP relaxation...
GLPK Simplex Optimizer 5.0
7361 rows, 14580 columns, 51000 non-zeros
      0: obj =   4.000000000e+01 inf =   9.950e+01 (41)
Perturbing LP to avoid stalling [199]...
    459: obj =   1.714445300e-01 inf =   0.000e+00 (0)
Removing LP perturbation [1457]...
*  1457: obj =  -4.470919325e+00 inf =   1.588e-15 (0) 1
OPTIMAL LP SOLUTION FOUND
Integer optimization begins...
Long-step dual simplex will be used
+  1457: mip =     not found yet >=              -inf        (1; 0)
+  1646: mip =     not found yet >=  -4.470919325e+00        (189; 0)
+  1864: mip =     not found yet >=  -4.470919325e+00        (405; 0)
+  1925: >>>>>  -4.470919325e+00 >=  -4.470919325e+00 < 0.1% (463; 0)
+  1925: mip =  -4.470919325e+00 >=     tree is empty   0.0% (0; 925)
INTEGER OPTIMAL SOLUTION FOUND
Time used:   11.9 secs
Memory used: 21.4 Mb (22418004 bytes)
